p cnf 60 187
1 2 3 4 0
5 6 7 8 0
9 10 11 12 0
13 14 15 16 0
17 18 19 20 0
21 22 23 24 0
25 26 27 28 0
29 30 31 32 0
33 34 35 36 0
37 38 39 40 0
41 42 43 44 0
45 46 47 48 0
49 50 51 52 0
53 54 55 56 0
57 58 59 60 0
-1 -13 0
-2 -14 0
-3 -15 0
-4 -16 0
-1 -17 0
-2 -18 0
-3 -19 0
-4 -20 0
-1 -21 0
-2 -22 0
-3 -23 0
-4 -24 0
-1 -33 0
-2 -34 0
-3 -35 0
-4 -36 0
-1 -37 0
-2 -38 0
-3 -39 0
-4 -40 0
-1 -41 0
-2 -42 0
-3 -43 0
-4 -44 0
-1 -57 0
-2 -58 0
-3 -59 0
-4 -60 0
-5 -9 0
-6 -10 0
-7 -11 0
-8 -12 0
-5 -13 0
-6 -14 0
-7 -15 0
-8 -16 0
-5 -17 0
-6 -18 0
-7 -19 0
-8 -20 0
-5 -21 0
-6 -22 0
-7 -23 0
-8 -24 0
-5 -29 0
-6 -30 0
-7 -31 0
-8 -32 0
-5 -37 0
-6 -38 0
-7 -39 0
-8 -40 0
-5 -41 0
-6 -42 0
-7 -43 0
-8 -44 0
-5 -45 0
-6 -46 0
-7 -47 0
-8 -48 0
-5 -53 0
-6 -54 0
-7 -55 0
-8 -56 0
-9 -13 0
-10 -14 0
-11 -15 0
-12 -16 0
-9 -17 0
-10 -18 0
-11 -19 0
-12 -20 0
-9 -21 0
-10 -22 0
-11 -23 0
-12 -24 0
-9 -57 0
-10 -58 0
-11 -59 0
-12 -60 0
-13 -29 0
-14 -30 0
-15 -31 0
-16 -32 0
-13 -37 0
-14 -38 0
-15 -39 0
-16 -40 0
-13 -41 0
-14 -42 0
-15 -43 0
-16 -44 0
-13 -45 0
-14 -46 0
-15 -47 0
-16 -48 0
-13 -53 0
-14 -54 0
-15 -55 0
-16 -56 0
-17 -21 0
-18 -22 0
-19 -23 0
-20 -24 0
-17 -25 0
-18 -26 0
-19 -27 0
-20 -28 0
-17 -29 0
-18 -30 0
-19 -31 0
-20 -32 0
-21 -25 0
-22 -26 0
-23 -27 0
-24 -28 0
-21 -41 0
-22 -42 0
-23 -43 0
-24 -44 0
-21 -45 0
-22 -46 0
-23 -47 0
-24 -48 0
-21 -53 0
-22 -54 0
-23 -55 0
-24 -56 0
-25 -33 0
-26 -34 0
-27 -35 0
-28 -36 0
-25 -41 0
-26 -42 0
-27 -43 0
-28 -44 0
-29 -45 0
-30 -46 0
-31 -47 0
-32 -48 0
-33 -37 0
-34 -38 0
-35 -39 0
-36 -40 0
-33 -45 0
-34 -46 0
-35 -47 0
-36 -48 0
-33 -49 0
-34 -50 0
-35 -51 0
-36 -52 0
-33 -57 0
-34 -58 0
-35 -59 0
-36 -60 0
-37 -49 0
-38 -50 0
-39 -51 0
-40 -52 0
-45 -49 0
-46 -50 0
-47 -51 0
-48 -52 0
-45 -53 0
-46 -54 0
-47 -55 0
-48 -56 0
-49 -57 0
-50 -58 0
-51 -59 0
-52 -60 0
